32	0

0	1	2
3	1	3
5	1	4
4	1	5
1	2	6	7
2	1	8
5	1	8
1	2	9	10
10	1	11
7	1	11
6	1	12
9	1	13
3	1	14
5	2	15	16
5	1	17
9	1	17
4	2	18	19
7	1	20
6	1	20
8	1	21
9	1	22
4	2	23	24
8	1	25
9	1	25
6	1	26
2	1	27
2	1	28
5	1	29
10	1	30
7	1	31
6	1	32
0	0
